data/lp_files/pEFS/38_4.lp
\ Model foo
\ LP format - for model browsing. Use MPS format to capture full model detail.
Minimize
  z
Subject To
 allocateEach[1]: x[1,1] + x[2,1] = 1
 allocateEach[2]: x[1,2] + x[2,2] = 1
 allocateEach[3]: x[1,3] + x[2,3] = 1
 allocateEach[4]: x[1,4] + x[2,4] = 1
 allocateEach[5]: x[1,5] + x[2,5] = 1
 allocateEach[6]: x[1,6] + x[2,6] = 1
 allocateEach[7]: x[1,7] + x[2,7] = 1
 allocateEach[8]: x[1,8] + x[2,8] = 1
 allocateEach[9]: x[1,9] + x[2,9] = 1
 allocateEach[10]: x[1,10] + x[2,10] = 1
 allocateEach[11]: x[1,11] + x[2,11] = 1
 allocateEach[12]: x[1,12] + x[2,12] = 1
 allocateEach[13]: x[1,13] + x[2,13] = 1
 allocateEach[14]: x[1,14] + x[2,14] = 1
 allocateEach[15]: x[1,15] + x[2,15] = 1
 allocateEach[16]: x[1,16] + x[2,16] = 1
 allocateEach[17]: x[1,17] + x[2,17] = 1
 allocateEach[18]: x[1,18] + x[2,18] = 1
 allocateAllCash: cashProportion[1] + cashProportion[2] = 1
 findWorstP[1,2]: z + 0.0259829344086804 cashProportion[1]
   - 0.0259829344086804 cashProportion[2] + 0.064583181766216 x[1,1]
   + 0.0411777544508767 x[1,2] + 0.0961784300071713 x[1,3]
   + 0.0528388954134924 x[1,4] + 0.0100501990292776 x[1,5]
   + 0.0573807123481298 x[1,6] + 0.0175748568340314 x[1,7]
   + 0.0781462735275471 x[1,8] + 0.0492532504650945 x[1,9]
   + 0.0185829946890882 x[1,10] + 0.0450959809597057 x[1,11]
   + 0.0699356662544041 x[1,12] + 0.0575781826496357 x[1,13]
   + 0.1030379246910629 x[1,14] + 0.0299739131338537 x[1,15]
   + 0.0592722699730817 x[1,16] + 0.0253593439828721 x[1,17]
   + 0.0979972354157789 x[1,18] - 0.064583181766216 x[2,1]
   - 0.0411777544508767 x[2,2] - 0.0961784300071713 x[2,3]
   - 0.0528388954134924 x[2,4] - 0.0100501990292776 x[2,5]
   - 0.0573807123481298 x[2,6] - 0.0175748568340314 x[2,7]
   - 0.0781462735275471 x[2,8] - 0.0492532504650945 x[2,9]
   - 0.0185829946890882 x[2,10] - 0.0450959809597057 x[2,11]
   - 0.0699356662544041 x[2,12] - 0.0575781826496357 x[2,13]
   - 0.1030379246910629 x[2,14] - 0.0299739131338537 x[2,15]
   - 0.0592722699730817 x[2,16] - 0.0253593439828721 x[2,17]
   - 0.0979972354157789 x[2,18] >= 0
 findWorstP[2,1]: z - 0.0236836620625628 cashProportion[1]
   + 0.0236836620625628 cashProportion[2] - 0.0541503249398435 x[1,1]
   - 0.0905094829382899 x[1,2] - 0.0179522158434226 x[1,3]
   - 0.0476515280698763 x[1,4] - 0.0244510127133898 x[1,5]
   - 0.088671630762235 x[1,6] - 0.0756835104871256 x[1,7]
   - 0.0314519032190834 x[1,8] - 0.0440421379715417 x[1,9]
   - 0.0710225657932132 x[1,10] - 0.067536330737604 x[1,11]
   - 0.00318308418120844 x[1,12] - 0.059625987608708 x[1,13]
   - 0.0825044051611436 x[1,14] - 0.0667026658330018 x[1,15]
   - 0.0576365599954527 x[1,16] - 0.089060042820061 x[1,17]
   - 0.00448094886223688 x[1,18] + 0.0541503249398435 x[2,1]
   + 0.0905094829382899 x[2,2] + 0.0179522158434226 x[2,3]
   + 0.0476515280698763 x[2,4] + 0.0244510127133898 x[2,5]
   + 0.088671630762235 x[2,6] + 0.0756835104871256 x[2,7]
   + 0.0314519032190834 x[2,8] + 0.0440421379715417 x[2,9]
   + 0.0710225657932132 x[2,10] + 0.067536330737604 x[2,11]
   + 0.00318308418120844 x[2,12] + 0.059625987608708 x[2,13]
   + 0.0825044051611436 x[2,14] + 0.0667026658330018 x[2,15]
   + 0.0576365599954527 x[2,16] + 0.089060042820061 x[2,17]
   + 0.00448094886223688 x[2,18] >= 0
Bounds
 z <= 1
 -infinity <= cashProportion[1] <= 1
 -infinity <= cashProportion[2] <= 1
Binaries
 x[1,1] x[1,2] x[1,3] x[1,4] x[1,5] x[1,6] x[1,7] x[1,8] x[1,9] x[1,10]
 x[1,11] x[1,12] x[1,13] x[1,14] x[1,15] x[1,16] x[1,17] x[1,18] x[2,1]
 x[2,2] x[2,3] x[2,4] x[2,5] x[2,6] x[2,7] x[2,8] x[2,9] x[2,10] x[2,11]
 x[2,12] x[2,13] x[2,14] x[2,15] x[2,16] x[2,17] x[2,18]
End
