data/mps_files/pEFS/38_4.mps
NAME foo
ROWS
 N  OBJ
 E  allocateEach[1]
 E  allocateEach[2]
 E  allocateEach[3]
 E  allocateEach[4]
 E  allocateEach[5]
 E  allocateEach[6]
 E  allocateEach[7]
 E  allocateEach[8]
 E  allocateEach[9]
 E  allocateEach[10]
 E  allocateEach[11]
 E  allocateEach[12]
 E  allocateEach[13]
 E  allocateEach[14]
 E  allocateEach[15]
 E  allocateEach[16]
 E  allocateEach[17]
 E  allocateEach[18]
 E  allocateAllCash
 G  findWorstP[1,2]
 G  findWorstP[2,1]
COLUMNS
    z         OBJ       1
    z         findWorstP[1,2]  1
    z         findWorstP[2,1]  1
    cashProportion[1]  allocateAllCash  1
    cashProportion[1]  findWorstP[1,2]  2.5982934408680380e-02
    cashProportion[1]  findWorstP[2,1]  -2.3683662062562762e-02
    cashProportion[2]  allocateAllCash  1
    cashProportion[2]  findWorstP[1,2]  -2.5982934408680380e-02
    cashProportion[2]  findWorstP[2,1]  2.3683662062562762e-02
    MARKER    'MARKER'                 'INTORG'
    x[1,1]    allocateEach[1]  1
    x[1,1]    findWorstP[1,2]  6.4583181766215955e-02
    x[1,1]    findWorstP[2,1]  -0.0541503249398435
    x[1,2]    allocateEach[2]  1
    x[1,2]    findWorstP[1,2]  4.1177754450876666e-02
    x[1,2]    findWorstP[2,1]  -9.0509482938289851e-02
    x[1,3]    allocateEach[3]  1
    x[1,3]    findWorstP[1,2]  0.0961784300071713
    x[1,3]    findWorstP[2,1]  -1.7952215843422572e-02
    x[1,4]    allocateEach[4]  1
    x[1,4]    findWorstP[1,2]  5.2838895413492418e-02
    x[1,4]    findWorstP[2,1]  -4.7651528069876277e-02
    x[1,5]    allocateEach[5]  1
    x[1,5]    findWorstP[1,2]  1.0050199029277571e-02
    x[1,5]    findWorstP[2,1]  -2.4451012713389796e-02
    x[1,6]    allocateEach[6]  1
    x[1,6]    findWorstP[1,2]  5.7380712348129755e-02
    x[1,6]    findWorstP[2,1]  -8.8671630762234985e-02
    x[1,7]    allocateEach[7]  1
    x[1,7]    findWorstP[1,2]  1.7574856834031410e-02
    x[1,7]    findWorstP[2,1]  -7.5683510487125571e-02
    x[1,8]    allocateEach[8]  1
    x[1,8]    findWorstP[1,2]  7.8146273527547119e-02
    x[1,8]    findWorstP[2,1]  -3.1451903219083352e-02
    x[1,9]    allocateEach[9]  1
    x[1,9]    findWorstP[1,2]  4.9253250465094531e-02
    x[1,9]    findWorstP[2,1]  -4.4042137971541710e-02
    x[1,10]   allocateEach[10]  1
    x[1,10]   findWorstP[1,2]  1.8582994689088205e-02
    x[1,10]   findWorstP[2,1]  -7.1022565793213213e-02
    x[1,11]   allocateEach[11]  1
    x[1,11]   findWorstP[1,2]  4.5095980959705670e-02
    x[1,11]   findWorstP[2,1]  -6.7536330737603970e-02
    x[1,12]   allocateEach[12]  1
    x[1,12]   findWorstP[1,2]  6.9935666254404116e-02
    x[1,12]   findWorstP[2,1]  -3.1830841812084351e-03
    x[1,13]   allocateEach[13]  1
    x[1,13]   findWorstP[1,2]  5.7578182649635726e-02
    x[1,13]   findWorstP[2,1]  -5.9625987608708006e-02
    x[1,14]   allocateEach[14]  1
    x[1,14]   findWorstP[1,2]  1.0303792469106290e-01
    x[1,14]   findWorstP[2,1]  -8.2504405161143643e-02
    x[1,15]   allocateEach[15]  1
    x[1,15]   findWorstP[1,2]  2.9973913133853686e-02
    x[1,15]   findWorstP[2,1]  -6.6702665833001759e-02
    x[1,16]   allocateEach[16]  1
    x[1,16]   findWorstP[1,2]  5.9272269973081687e-02
    x[1,16]   findWorstP[2,1]  -5.7636559995452745e-02
    x[1,17]   allocateEach[17]  1
    x[1,17]   findWorstP[1,2]  2.5359343982872051e-02
    x[1,17]   findWorstP[2,1]  -8.9060042820061011e-02
    x[1,18]   allocateEach[18]  1
    x[1,18]   findWorstP[1,2]  9.7997235415778913e-02
    x[1,18]   findWorstP[2,1]  -4.4809488622368750e-03
    x[2,1]    allocateEach[1]  1
    x[2,1]    findWorstP[1,2]  -6.4583181766215955e-02
    x[2,1]    findWorstP[2,1]  0.0541503249398435
    x[2,2]    allocateEach[2]  1
    x[2,2]    findWorstP[1,2]  -4.1177754450876666e-02
    x[2,2]    findWorstP[2,1]  9.0509482938289851e-02
    x[2,3]    allocateEach[3]  1
    x[2,3]    findWorstP[1,2]  -0.0961784300071713
    x[2,3]    findWorstP[2,1]  1.7952215843422572e-02
    x[2,4]    allocateEach[4]  1
    x[2,4]    findWorstP[1,2]  -5.2838895413492418e-02
    x[2,4]    findWorstP[2,1]  4.7651528069876277e-02
    x[2,5]    allocateEach[5]  1
    x[2,5]    findWorstP[1,2]  -1.0050199029277571e-02
    x[2,5]    findWorstP[2,1]  2.4451012713389796e-02
    x[2,6]    allocateEach[6]  1
    x[2,6]    findWorstP[1,2]  -5.7380712348129755e-02
    x[2,6]    findWorstP[2,1]  8.8671630762234985e-02
    x[2,7]    allocateEach[7]  1
    x[2,7]    findWorstP[1,2]  -1.7574856834031410e-02
    x[2,7]    findWorstP[2,1]  7.5683510487125571e-02
    x[2,8]    allocateEach[8]  1
    x[2,8]    findWorstP[1,2]  -7.8146273527547119e-02
    x[2,8]    findWorstP[2,1]  3.1451903219083352e-02
    x[2,9]    allocateEach[9]  1
    x[2,9]    findWorstP[1,2]  -4.9253250465094531e-02
    x[2,9]    findWorstP[2,1]  4.4042137971541710e-02
    x[2,10]   allocateEach[10]  1
    x[2,10]   findWorstP[1,2]  -1.8582994689088205e-02
    x[2,10]   findWorstP[2,1]  7.1022565793213213e-02
    x[2,11]   allocateEach[11]  1
    x[2,11]   findWorstP[1,2]  -4.5095980959705670e-02
    x[2,11]   findWorstP[2,1]  6.7536330737603970e-02
    x[2,12]   allocateEach[12]  1
    x[2,12]   findWorstP[1,2]  -6.9935666254404116e-02
    x[2,12]   findWorstP[2,1]  3.1830841812084351e-03
    x[2,13]   allocateEach[13]  1
    x[2,13]   findWorstP[1,2]  -5.7578182649635726e-02
    x[2,13]   findWorstP[2,1]  5.9625987608708006e-02
    x[2,14]   allocateEach[14]  1
    x[2,14]   findWorstP[1,2]  -1.0303792469106290e-01
    x[2,14]   findWorstP[2,1]  8.2504405161143643e-02
    x[2,15]   allocateEach[15]  1
    x[2,15]   findWorstP[1,2]  -2.9973913133853686e-02
    x[2,15]   findWorstP[2,1]  6.6702665833001759e-02
    x[2,16]   allocateEach[16]  1
    x[2,16]   findWorstP[1,2]  -5.9272269973081687e-02
    x[2,16]   findWorstP[2,1]  5.7636559995452745e-02
    x[2,17]   allocateEach[17]  1
    x[2,17]   findWorstP[1,2]  -2.5359343982872051e-02
    x[2,17]   findWorstP[2,1]  8.9060042820061011e-02
    x[2,18]   allocateEach[18]  1
    x[2,18]   findWorstP[1,2]  -9.7997235415778913e-02
    x[2,18]   findWorstP[2,1]  4.4809488622368750e-03
    MARKER    'MARKER'                 'INTEND'
RHS
    RHS1      allocateEach[1]  1
    RHS1      allocateEach[2]  1
    RHS1      allocateEach[3]  1
    RHS1      allocateEach[4]  1
    RHS1      allocateEach[5]  1
    RHS1      allocateEach[6]  1
    RHS1      allocateEach[7]  1
    RHS1      allocateEach[8]  1
    RHS1      allocateEach[9]  1
    RHS1      allocateEach[10]  1
    RHS1      allocateEach[11]  1
    RHS1      allocateEach[12]  1
    RHS1      allocateEach[13]  1
    RHS1      allocateEach[14]  1
    RHS1      allocateEach[15]  1
    RHS1      allocateEach[16]  1
    RHS1      allocateEach[17]  1
    RHS1      allocateEach[18]  1
    RHS1      allocateAllCash  1
BOUNDS
 UP BND1      z         1
 MI BND1      cashProportion[1]
 UP BND1      cashProportion[1]  1
 MI BND1      cashProportion[2]
 UP BND1      cashProportion[2]  1
 BV BND1      x[1,1]  
 BV BND1      x[1,2]  
 BV BND1      x[1,3]  
 BV BND1      x[1,4]  
 BV BND1      x[1,5]  
 BV BND1      x[1,6]  
 BV BND1      x[1,7]  
 BV BND1      x[1,8]  
 BV BND1      x[1,9]  
 BV BND1      x[1,10] 
 BV BND1      x[1,11] 
 BV BND1      x[1,12] 
 BV BND1      x[1,13] 
 BV BND1      x[1,14] 
 BV BND1      x[1,15] 
 BV BND1      x[1,16] 
 BV BND1      x[1,17] 
 BV BND1      x[1,18] 
 BV BND1      x[2,1]  
 BV BND1      x[2,2]  
 BV BND1      x[2,3]  
 BV BND1      x[2,4]  
 BV BND1      x[2,5]  
 BV BND1      x[2,6]  
 BV BND1      x[2,7]  
 BV BND1      x[2,8]  
 BV BND1      x[2,9]  
 BV BND1      x[2,10] 
 BV BND1      x[2,11] 
 BV BND1      x[2,12] 
 BV BND1      x[2,13] 
 BV BND1      x[2,14] 
 BV BND1      x[2,15] 
 BV BND1      x[2,16] 
 BV BND1      x[2,17] 
 BV BND1      x[2,18] 
ENDATA
